N = 7;
Capacity = 12;
ItemsPerCustomer = [3, 7, 6, 6, 5, 4, 4];
maxItemsPerCustomer = 7;
binCapacity = 50;
SizesOfItems = [|
  28, 23, 11, 0, 0, 0, 0
| 29, 26, 17, 16, 12, 10, 10
| 32, 32, 30, 27, 27, 16, 0
| 35, 28, 24, 23, 18, 17, 0
| 37, 35, 34, 15, 10, 0, 0
| 32, 23, 20, 18, 0, 0, 0
| 40, 34, 16, 14, 0, 0, 0
|];
Distance = [|
  0, 52, 45, 49, 48, 33, 46, 38
| 52, 0, 7, 13, 100, 72, 87, 63
| 45, 7, 0, 13, 93, 66, 81, 57
| 49, 13, 13, 0, 97, 63, 78, 67
| 48, 100, 93, 97, 0, 49, 49, 60
| 33, 72, 66, 63, 49, 0, 15, 70
| 46, 87, 81, 78, 49, 15, 0, 82
| 38, 63, 57, 67, 60, 70, 82, 0
|];
